p cnf 444 64
121 0
212 0
243 0
311 0
342 0
433 0
-122 0
-123 0
-124 0
-211 0
-213 0
-214 0
-241 0
-242 0
-244 0
-312 0
-313 0
-314 0
-341 0
-343 0
-344 0
-431 0
-432 0
-434 0
-111 0
-221 0
-112 0
-222 0
-133 0
-143 0
-233 0
-321 0
-411 0
-421 0
-332 0
-442 0
-333 0
-443 0
-131 0
-141 0
-232 0
-223 0
-331 0
-322 0
-413 0
-423 0
-412 0
-142 0
144 0
224 0
334 0
414 0
113 0
231 0
132 0
422 0
323 0
441 0
-114 0
-134 0
-234 0
-324 0
-424 0
-444 0